cost: 1133.06
Route 1:           0   18   83    8   46   45   17   86   38   14   44   91  100   98   37   92   97   95   94    0
Route 2:           0   26    4   56   23   67   39   25   55   54   24   29   68   80   12    0
Route 3:           0   31   88   62   19   11   10   70   30   20   51    9   81   33   50    1   69   27    0
Route 4:           0   40   21   73   72   74   75   22   41    2   57   15   43   42   87   13   58   53    0
Route 5:           0   52    7   82   48   47   36   49   64   63   90   32   66   65   71   35   34   78   79    3   77   76   28    0
Route 6:           0   89   60    5   84   61   16   85   93   59   99   96    6    0
